20 43
11 13 4
11 19 5
11 16 2
13 19 3
13 16 4
16 19 5
3 11 3
3 13 4
3 19 2
3 16 4
3 7 4
7 10 4
7 18 3
4 7 5
4 10 3
4 18 2
1 7 5
1 4 2
1 10 3
1 18 5
10 18 5
8 14 2
8 15 1
8 18 5
14 15 3
6 8 3
6 14 3
6 15 2
5 8 1
5 14 2
5 15 2
5 6 3
5 20 5
2 20 1
2 9 3
2 12 4
2 17 4
9 20 2
9 12 1
9 17 5
12 20 2
12 17 1
17 20 5
